p tw 25 297
0 1
0 2
0 3
0 4
0 5
0 6
0 7
0 8
0 9
0 10
0 11
0 12
0 19
0 18
0 21
0 24
0 14
0 17
0 22
0 13
0 23
0 16
0 20
0 15
1 2
1 3
1 4
1 5
1 6
1 12
1 13
1 15
1 19
1 22
1 7
1 11
1 10
1 20
1 17
1 21
1 23
1 24
1 14
1 16
1 18
1 8
1 9
2 3
2 4
2 5
2 6
2 13
2 16
2 17
2 19
2 10
2 18
2 20
2 21
2 7
2 8
2 11
2 24
2 12
2 22
2 9
2 15
2 14
2 23
3 4
3 5
3 6
3 9
3 15
3 16
3 17
3 18
3 19
3 13
3 14
3 20
3 22
3 23
3 10
3 12
3 7
3 8
3 21
3 24
3 11
4 5
4 6
4 7
4 8
4 9
4 10
4 11
4 12
4 13
4 14
4 16
4 17
4 19
4 18
4 20
4 21
4 22
4 24
4 15
5 6
5 8
5 10
5 12
5 13
5 14
5 18
5 20
5 21
5 15
5 19
5 22
5 16
5 23
5 17
5 24
5 7
5 11
6 15
6 16
6 19
6 22
6 23
6 9
6 12
6 18
6 21
6 24
6 10
6 11
6 7
6 14
6 8
6 20
6 17
6 13
7 8
7 9
7 10
7 11
7 17
7 19
7 24
7 13
7 22
7 12
7 15
7 20
7 23
7 16
7 14
7 18
7 21
8 9
8 10
8 11
8 12
8 13
8 14
8 17
8 19
8 24
8 22
8 16
8 23
8 18
8 15
8 20
8 21
9 10
9 11
9 15
9 16
9 17
9 18
9 19
9 12
9 21
9 24
9 14
9 23
9 20
9 13
9 22
10 11
10 12
10 13
10 14
10 18
10 20
10 21
10 19
10 15
10 22
10 24
10 23
10 16
10 17
11 17
11 19
11 24
11 16
11 18
11 21
11 22
11 14
11 15
11 20
11 12
11 13
11 23
12 13
12 14
12 15
12 19
12 22
12 18
12 21
12 24
12 20
12 23
12 16
13 14
13 16
13 17
13 19
13 15
13 22
13 21
13 23
13 24
13 20
13 18
14 15
14 16
14 20
14 22
14 23
14 17
14 18
14 21
14 19
14 24
15 16
15 17
15 18
15 19
15 22
15 20
15 23
15 21
15 24
16 17
16 18
16 19
16 20
16 22
16 23
16 21
16 24
17 18
17 19
17 24
17 22
17 20
17 21
17 23
18 19
18 20
18 21
18 22
18 24
18 23
19 22
19 24
19 23
19 20
19 21
20 21
20 22
20 23
20 24
21 22
21 24
21 23
22 23
22 24
23 24
